NAME: tsp225
TYPE: TOUR
DIMENSION: 225
TOUR_SECTION
1
3
198
4
5
6
7
8
9
10
11
12
13
14
15
16
17
20
21
203
19
18
22
23
24
208
25
26
34
33
35
30
29
28
204
77
78
79
97
96
95
80
81
209
94
93
92
91
90
87
210
84
83
82
85
86
131
211
130
222
129
128
127
126
132
164
165
166
167
214
212
150
149
148
147
146
153
154
155
156
157
144
143
201
145
152
151
168
169
170
171
172
173
181
174
180
179
176
177
178
182
215
134
135
183
136
137
138
139
140
141
142
163
158
213
162
161
160
159
89
88
221
98
99
100
101
102
103
104
220
105
106
107
108
109
217
219
216
76
75
74
73
72
71
70
69
68
67
66
65
64
63
62
61
60
59
2
47
225
189
27
188
205
190
133
199
191
192
196
193
218
45
48
194
46
44
43
42
195
224
207
49
51
50
57
56
55
52
53
54
58
112
111
110
113
114
115
118
119
185
120
175
121
122
123
124
125
184
186
223
116
117
187
202
206
31
32
36
37
38
39
40
41
197
200
EOF
